solution status: optimal solution found
objective value:                      158222.62018367
d11(0,0)                                            1 	(obj:0)
d11(1,1)                                            1 	(obj:0)
d11(1,2)                                            1 	(obj:0)
d11(2,3)                                            1 	(obj:0)
d11(2,4)                                            1 	(obj:0)
d11(2,5)                                            1 	(obj:0)
d11(3,7)                                            1 	(obj:0)
d11(3,8)                                            1 	(obj:0)
d11(3,9)                                            1 	(obj:0)
d11(3,10)                                           1 	(obj:0)
d11(3,11)                                           1 	(obj:0)
d11(3,13)                                           1 	(obj:0)
d11(4,15)                                           1 	(obj:0)
d11(4,17)                                           1 	(obj:0)
d11(4,19)                                           1 	(obj:0)
d11(4,21)                                           1 	(obj:0)
d11(4,23)                                           1 	(obj:0)
d11(4,25)                                           1 	(obj:0)
d11(4,27)                                           1 	(obj:0)
d11(4,29)                                           1 	(obj:0)
d12(4,16)                                           1 	(obj:0)
d12(4,18)                                           1 	(obj:0)
d12(4,20)                                           1 	(obj:0)
d12(4,22)                                           1 	(obj:0)
d12(4,24)                                           1 	(obj:0)
d12(4,26)                                           1 	(obj:0)
d12(4,28)                                           1 	(obj:0)
d12(4,30)                                           1 	(obj:0)
d21(2,3)                                            1 	(obj:0)
d21(3,7)                                            1 	(obj:0)
d21(3,8)                                            1 	(obj:0)
d21(3,9)                                            1 	(obj:0)
d21(3,11)                                           1 	(obj:0)
d21(4,15)                                           1 	(obj:0)
d21(4,16)                                           1 	(obj:0)
d21(4,17)                                           1 	(obj:0)
d21(4,18)                                           1 	(obj:0)
d21(4,19)                                           1 	(obj:0)
d21(4,20)                                           1 	(obj:0)
d21(4,23)                                           1 	(obj:0)
d21(4,24)                                           1 	(obj:0)
y2(4,16)                             1385.48851144777 	(obj:0)
y2(4,18)                             1385.48851144777 	(obj:0)
y2(4,20)                             1385.48851144777 	(obj:0)
y2(4,22)                             1385.48851144777 	(obj:0)
y2(4,24)                             1385.48851144777 	(obj:0)
y2(4,26)                             1385.48851144777 	(obj:0)
y2(4,28)                             1385.48851144777 	(obj:0)
y2(4,30)                             1385.48851144777 	(obj:0)
STE(1,1)                             2079.00000000125 	(obj:0)
STE(0,0)                                         4725 	(obj:0)
STE(1,2)                             3737.24989889007 	(obj:0)
STE(2,3)                             42.7501011124065 	(obj:0)
STE(2,4)                             1701.00000000125 	(obj:0)
STE(2,5)                             1701.00000000122 	(obj:0)
STE(2,6)                             3359.24989889007 	(obj:0)
STE(3,7)                            -1993.49979777644 	(obj:0)
STE(3,8)                            -335.249898887594 	(obj:0)
STE(3,9)                            -335.249898887593 	(obj:0)
STE(3,10)                            1323.00000000131 	(obj:0)
STE(3,11)                           -335.249898887622 	(obj:0)
STE(3,12)                            1323.00000000122 	(obj:0)
STE(3,13)                            1323.00000000122 	(obj:0)
STE(3,14)                            2981.24989889007 	(obj:0)
STE(4,15)                           -2371.49979777767 	(obj:0)
STE(4,16)                           -1055.28571190106 	(obj:0)
STE(4,17)                           -713.249898888763 	(obj:0)
STE(4,18)                            602.964186987786 	(obj:0)
STE(4,19)                           -713.249898888763 	(obj:0)
STE(4,20)                            602.964186987786 	(obj:0)
STE(4,21)                                         945 	(obj:0)
STE(4,22)                            2261.21408587669 	(obj:0)
STE(4,23)                           -713.249898888792 	(obj:0)
STE(4,24)                            602.964186987757 	(obj:0)
STE(4,25)                                         945 	(obj:0)
STE(4,26)                             2261.2140858766 	(obj:0)
STE(4,27)                                         945 	(obj:0)
STE(4,28)                             2261.2140858766 	(obj:0)
STE(4,29)                            2603.24989888896 	(obj:0)
STE(4,30)                            3919.46398476545 	(obj:0)
y1(3,11)                             1492.42490899996 	(obj:0)
y1(3,13)                             1492.42490899996 	(obj:0)
y1(4,15)                         1.10726319099252e-009 	(obj:0)
y1(4,17)                         1.05267576688296e-009 	(obj:0)
y1(4,19)                         1.05267576688296e-009 	(obj:0)
y1(4,21)                         1.18307070806623e-009 	(obj:0)
y1(4,23)                         1.05267576688296e-009 	(obj:0)
y1(4,25)                         1.10139808384702e-009 	(obj:0)
y1(4,27)                         1.1012889444828e-009 	(obj:0)
AVE(1)                               3265.91696791192 	(obj:0)
AVE(2)                               3332.74178563731 	(obj:0)
AVE(3)                               3444.11697932125 	(obj:0)
WB(4)                                3399.56511093778 	(obj:0)
AVE(4)                               3399.56511093778 	(obj:0)
WG(1)                                3265.91696791192 	(obj:10)
WG(2)                                3332.74178563731 	(obj:10)
WG(3)                                3444.11697932125 	(obj:10)
BG(1)                                1490.35011371962 	(obj:10)
BG(2)                                863.550713342282 	(obj:10)
BG(3)                                752.175519658342 	(obj:10)
BG(4)                                2673.40993877667 	(obj:10)
y1(1,1)                              2041.19999999887 	(obj:0)
y1(1,2)                              548.775090998937 	(obj:0)
y1(2,3)                              1492.42490899996 	(obj:0)
y1(2,5)                              1492.42490899996 	(obj:0)
y1(3,7)                              1492.42490899996 	(obj:0)
y1(3,9)                              1492.42490899996 	(obj:0)
